100
300
30
0 0
32 96
61 28
67 48
13 25
36 43
93 20
83 69
16 6
7 93
22 54
66 95
17 30
67 29
50 22
91 3
67 55
20 4
32 71
55 66
83 62
93 5
77 89
41 24
0 50
39 59
77 50
47 19
34 10
3 70
56 18
0 0
30
40
30
60
50
60
40
60
70
40
30
50
70
40
50
30
40
30
60
50
60
40
60
70
40
30
50
70
40
50
